
Gurobi 11.0.2 (win64) logging started Wed Aug 14 11:13:48 2024

Set parameter LogFile to value "D:\Documenti\Scuola\Laurea magistrale unibs\laurea-unibs-mkfsp\output\2024-08-14T08_52_45.517425\logs\instance03_bucket1.log"
Set parameter TimeLimit to value 500
Set parameter MIPGap to value 0
Gurobi Optimizer version 11.0.2 build v11.0.2rc0 (win64 - Windows 10.0 (19045.2))

CPU model: Intel(R) Core(TM) i5-4670 CPU @ 3.40GHz, instruction set [SSE2|AVX|AVX2]
Thread count: 4 physical cores, 4 logical processors, using up to 4 threads

Optimize a model with 1658 rows, 8125 columns and 86723 nonzeros
Model fingerprint: 0x16a6fb24
Variable types: 0 continuous, 8125 integer (8060 binary)
Coefficient statistics:
  Matrix range     [1e+00, 1e+03]
  Objective range  [6e+02, 8e+03]
  Bounds range     [1e+00, 1e+00]
  RHS range        [1e+00, 4e+04]
Found heuristic solution: objective -0.0000000
Presolve time: 0.11s
Presolved: 1658 rows, 8125 columns, 86723 nonzeros
Variable types: 0 continuous, 8125 integer (8060 binary)

Root relaxation: objective 3.534810e+05, 851 iterations, 0.01 seconds (0.01 work units)

    Nodes    |    Current Node    |     Objective Bounds      |     Work
 Expl Unexpl |  Obj  Depth IntInf | Incumbent    BestBd   Gap | It/Node Time

H    0     0                    353481.00000 353481.000  0.00%     -    0s
     0     0 353481.000    0  368 353481.000 353481.000  0.00%     -    0s

Explored 1 nodes (851 simplex iterations) in 0.14 seconds (0.11 work units)
Thread count was 4 (of 4 available processors)

Solution count 2: 353481 -0 

Optimal solution found (tolerance 0.00e+00)
Best objective 3.534810000000e+05, best bound 3.534810000000e+05, gap 0.0000%
